Set parameter Username
Academic license - for non-commercial use only - expires 2024-10-29
Set parameter LazyConstraints to value 1
Set parameter TimeLimit to value 600
Gurobi Optimizer version 10.0.0 build v10.0.0rc2 (linux64)

CPU model: AMD FX(tm)-4300 Quad-Core Processor, instruction set [SSE2|AVX]
Thread count: 2 physical cores, 4 logical processors, using up to 4 threads

Optimize a model with 613 rows, 150 columns and 646 nonzeros
Model fingerprint: 0x3272bea5
Variable types: 0 continuous, 150 integer (150 binary)
Coefficient statistics:
  Matrix range     [1e+00, 1e+00]
  Objective range  [1e+00, 1e+01]
  Bounds range     [1e+00, 1e+00]
  RHS range        [1e+00, 1e+00]
Presolve removed 603 rows and 3 columns
Presolve time: 0.00s
Presolved: 10 rows, 147 columns, 43 nonzeros
Variable types: 0 continuous, 147 integer (147 binary)

Root relaxation: objective 4.100000e+01, 9 iterations, 0.00 seconds (0.00 work units)

    Nodes    |    Current Node    |     Objective Bounds      |     Work
 Expl Unexpl |  Obj  Depth IntInf | Incumbent    BestBd   Gap | It/Node Time

     0     0   41.00000    0    -          -   41.00000      -     -    0s
     0     0   44.00000    0    -          -   44.00000      -     -    0s
     0     0   45.00000    0    -          -   45.00000      -     -    0s
     0     0   45.00000    0    -          -   45.00000      -     -    0s
     0     0   46.00000    0    -          -   46.00000      -     -    0s
     0     0   47.00000    0    -          -   47.00000      -     -    0s
     0     0   48.00000    0    -          -   48.00000      -     -    0s
     0     0   48.00000    0    -          -   48.00000      -     -    0s
     0     0   48.00000    0    -          -   48.00000      -     -    0s
     0     0   49.00000    0    -          -   49.00000      -     -    0s
     0     0   49.00000    0    -          -   49.00000      -     -    0s
     0     0   50.00000    0    -          -   50.00000      -     -    0s
     0     0   50.00000    0    -          -   50.00000      -     -    0s
     0     0   52.00000    0    -          -   52.00000      -     -    0s
     0     0   54.00000    0    -          -   54.00000      -     -    0s
     0     0   54.50000    0    5          -   54.50000      -     -    0s
H    0     0                     154.0000000   59.50000  61.4%     -    0s
     0     0   59.50000    0    9  154.00000   59.50000  61.4%     -    0s
     0     0   64.00000    0    -  154.00000   64.00000  58.4%     -    0s
     0     0   64.00000    0    -  154.00000   64.00000  58.4%     -    0s
     0     0   64.00000    0    -  154.00000   64.00000  58.4%     -    0s
     0     0   64.00000    0    -  154.00000   64.00000  58.4%     -    0s
     0     0   64.00000    0    -  154.00000   64.00000  58.4%     -    0s
H    0     0                     132.0000000   64.50000  51.1%     -    0s
     0     0   64.50000    0    5  132.00000   64.50000  51.1%     -    0s
     0     0   66.00000    0    -  132.00000   66.00000  50.0%     -    0s
     0     0   66.00000    0    3  132.00000   66.00000  50.0%     -    0s
     0     0   68.00000    0    -  132.00000   68.00000  48.5%     -    0s
     0     0   68.00000    0    -  132.00000   68.00000  48.5%     -    0s
     0     0   68.00000    0    5  132.00000   68.00000  48.5%     -    0s
     0     0   69.00000    0    -  132.00000   69.00000  47.7%     -    1s
H    0     0                     128.0000000   69.50000  45.7%     -    1s
     0     0   69.50000    0    4  128.00000   69.50000  45.7%     -    1s
     0     2   71.50000    0    5  128.00000   71.50000  44.1%     -    1s
H    1     2                      99.0000000   72.00000  27.3%   0.0    1s
H    6     7                      93.0000000   72.28571  22.3%  10.7    1s
H   67    69                      91.0000000   73.33333  19.4%  20.3    2s
H  151   129                      88.0000000   75.06667  14.7%  13.8    4s
   243   184   84.00000   21   10   88.00000   76.33333  13.3%  11.6    5s
   624   449   86.87383    9   21   88.00000   79.00000  10.2%   9.4   10s
  1010   702   86.00000   18    -   88.00000   79.62500  9.52%   8.8   16s
H 1154   610                      86.0000000   79.66667  7.36%   8.5   18s
  1323   678   81.87500   14   17   86.00000   79.92308  7.07%   8.2   20s

Cutting planes:
  User: 20
  Gomory: 2
  MIR: 1
  Flow cover: 5
  Zero half: 1
  Lazy constraints: 11

Explored 1537 nodes (13346 simplex iterations) in 24.58 seconds (0.90 work units)
Thread count was 4 (of 4 available processors)

Solution count 8: 86 88 91 ... 154

Optimal solution found (tolerance 1.00e-04)
Best objective 8.600000000000e+01, best bound 8.600000000000e+01, gap 0.0000%

User-callback calls 4183, time in user-callback 23.18 sec
